Name: Ing1213-1
Courses: 127
Rooms: 21
Days: 5
Periods_per_day: 5
Curricula: 54
Min_Max_Daily_Lectures: 2 3
UnavailabilityConstraints: 893
RoomConstraints: 127

COURSES:
c1606b t000 2 2 150 0
c1606 t000 4 2 150 0
c1613 t001 3 3 120 0
c1619 t002 2 2 120 0
c1641 t003 2 2 120 0
c1703 t004 2 2 100 0
c1716 t005 3 2 70 1
c3388 t006 2 2 68 0
c3431 t007 2 2 100 0
c3432 t008 3 3 100 0
c3444 t009 5 2 150 0
c3449 t010 2 2 70 0
c3450 t011 6 2 70 1
c3451 t012 2 2 70 0
c3455 t013 2 2 70 0
c3466 t014 2 2 180 0
c3502 t015 1 1 6 0
c3527 t007 1 1 100 0
c3591 t016 2 2 70 0
c3603 t017 4 3 90 0
c3613 t009 2 2 100 0
c3614 t014 2 2 70 0
c3615 t016 2 2 70 0
c3624 t018 7 1 75 0
c3626 t019 7 2 75 0
c3634 t020 4 4 120 0
c3636 t021 2 2 66 0
c3638 t022 3 2 80 0
c3639 t023 3 3 150 0
c3646 t022 1 1 6 0
c3651 t024 2 2 5 0
c3668 t024 2 2 120 0
c3673 t025 4 2 110 0
c3681 t026 6 2 70 1
c3689 t027 6 2 100 1
c3690 t004 2 2 120 0
c3690a t004 3 1 120 0
c3690b t004 3 1 120 0
c3692 t028 2 2 120 0
c3693 t029 2 2 110 0
c3694 t030 4 3 110 0
c3700 t031 2 2 90 0
c3705 t032 2 2 120 0
c3706 t033 2 2 120 0
c3709 t012 1 1 120 0
c3712 t034 2 2 30 0
c3719 t035 4 3 90 0
c3722 t036 2 2 70 0
c3723 t031 2 2 70 0
c3724 t037 2 2 60 0
c3726 t038 2 2 60 0
c3728 t039 4 3 68 0
c3731 t040 2 1 60 0
c3736 t041 2 2 30 0
c3743 t042 2 2 30 0
c3744 t043 2 1 30 1
c3746 t044 2 2 190 0
c3747 t045 4 4 190 0
c3750 t046 2 2 40 0
c3753 t047 2 2 40 0
c3754 t048 2 2 40 0
c3755 t049 2 2 40 0
c3760 t050 5 4 190 1
c3762 t051 4 3 40 0
c3767 t052 2 1 40 0
c3768 t053 2 2 100 0
c3769 t054 2 2 40 0
c3771 t052 2 1 12 1
c3772 t055 2 1 12 1
c3773 t055 2 1 12 1
c3775 t056 2 2 62 0
c3776 t057 2 2 12 0
c3779 t057 2 2 4 0
c3780 t058 4 3 12 0
c3782 t059 2 2 2 0
c3783 t049 2 2 8 0
c3786 t015 2 1 14 1
c3791 t060 2 2 6 0
c3802 t061 2 2 130 0
c3806 t062 3 2 110 0
c3807 t063 1 1 110 0
c3812 t015 3 3 190 0
c3815 t053 3 3 130 0
c3816 t064 2 2 220 0
c3820 t065 2 2 32 0
c3821 t048 2 2 110 0
c3822 t066 2 2 10 0
c3828 t067 2 2 10 0
c3830 t068 2 2 60 0
c3832 t069 2 2 60 0
c3833 t070 2 1 60 1
c3834 t071 2 2 50 0
c3835 t072 2 2 50 0
c3839 t073 2 2 60 0
c3842 t051 2 2 56 0
c3844 t065 2 2 15 0
c3848 t074 5 3 140 0
c3851 t054 2 2 90 0
c3852 t029 2 2 140 0
c3855 t075 2 2 90 0
c3859 t076 4 3 150 1
c3861 t077 3 2 140 1
c3862 t078 2 2 90 0
c3864 t079 5 4 130 0
c3869 t080 2 2 90 0
c3870 t065 2 2 140 0
c3871 t081 4 4 64 0
c3874 t082 5 4 64 0
c3875 t083 5 4 64 1
c3876 t084 2 2 64 0
c3877 t085 5 3 64 0
c3892 t086 2 2 32 0
c3898 t087 2 2 32 0
c3928 t088 4 3 10 0
c3931 t089 2 2 5 0
c3933 t090 2 2 8 0
c3944 t091 2 2 10 0
c3945 t091 2 2 10 0
c3946 t066 2 2 10 0
c3947 t092 2 2 5 0
c3948 t093 2 1 5 0
c3949 t094 2 2 10 0
c3950 t095 2 2 10 0
c3951 t096 2 2 10 0
c3674 t097 2 2 8 0
c3809 t098 2 2 110 0
c3932 t099 2 2 5 0

ROOMS:
r25 40 0
r36 42 0
r37 42 0
r38 48 0
r34 50 0
r27 65 0
B 216 0
gamma1 90 0
gamma2 90 0
delta1 90 0
delta2 90 0
D 216 0
F 216 0
G 216 0
A 312 0
r52 60 0
E 216 0
r50 65 0
r51 65 0
DS1 60 0
DS2 60 0

CURRICULA:
q000 5 c1606b c1606 c3444 c3624 c3639 
q001 5 c1606b c1606 c3444 c3626 c3639 
q002 7 c1613 c1619 c1641 c3466 c3690 c3690a c3690b 
q003 4 c3431 c3432 c3527 c3689 
q004 6 c1703 c1716 c3449 c3451 c3591 c3681 
q005 5 c3450 c3455 c3613 c3614 c3615 
q006 3 c3673 c3693 c3694 
q007 7 c3634 c3705 c3706 c3709 c3668 c3692 c3712 
q008 7 c3634 c3705 c3706 c3709 c3668 c3692 c3466 
q009 7 c3634 c3705 c3706 c3709 c3668 c3692 c3812 
q010 7 c3634 c3705 c3706 c3709 c3668 c3692 c3768 
q011 4 c3603 c3700 c3719 c3466 
q012 4 c3603 c3700 c3719 c3812 
q013 4 c3603 c3700 c3719 c3768 
q014 6 c3722 c3723 c3724 c3726 c3743 c3744 
q015 7 c3722 c3723 c3724 c3726 c3736 c1703 c3613 
q016 3 c3728 c3731 c3388 
q017 4 c3944 c3945 c3950 c3951 
q018 3 c3946 c3949 c3947 
q019 3 c3946 c3949 c3948 
q020 3 c3746 c3747 c3760 
q021 4 c3753 c3762 c3768 c3769 
q022 4 c3750 c3754 c3755 c3767 
q023 6 c3771 c3775 c3780 c3783 c3786 c3842 
q024 6 c3771 c3775 c3780 c3783 c3786 c3791 
q025 7 c3771 c3775 c3780 c3783 c3786 c3791 c3646 
q026 7 c3771 c3775 c3780 c3783 c3786 c3502 c3674 
q027 6 c3771 c3775 c3780 c3636 c3786 c3842 
q028 6 c3771 c3775 c3780 c3782 c3820 c3674 
q029 4 c3772 c3773 c3776 c3779 
q030 6 c3772 c3773 c3776 c3779 c3646 c3502 
q031 6 c3772 c3773 c3776 c3786 c3791 c3674 
q032 6 c3772 c3773 c3776 c3786 c3646 c3502 
q033 4 c3772 c3773 c3776 c3842 
q034 4 c3772 c3773 c3776 c3674 
q036 4 c3802 c3812 c3815 c3816 
q037 6 c3806 c3807 c3809 c3821 c3822 c3828 
q038 5 c3806 c3807 c3809 c3821 c3859 
q039 5 c3806 c3807 c3809 c3821 c3820 
q040 5 c3830 c3832 c3833 c3839 c3844 
q041 4 c3830 c3832 c3833 c3839 
q042 5 c3834 c3835 c3842 c3864 c3775 
q043 4 c3848 c3852 c3861 c3870 
q044 5 c3851 c3855 c3862 c3816 c3869 
q045 3 c3638 c3859 c3864 
q046 4 c3871 c3876 c3877 c3636 
q048 5 c3871 c3876 c3877 c3892 c3898 
q049 3 c3871 c3876 c3877 
q050 3 c3874 c3875 c3636 
q052 4 c3874 c3875 c3892 c3898 
q053 2 c3874 c3875 
q054 5 c3928 c3722 c3723 c3931 c3932 
q055 4 c3928 c3722 c3723 c3651 
q056 3 c3388 c3728 c3933 

UNAVAILABILITY_CONSTRAINTS:
c1613 0 0
c1613 2 0
c1613 3 0
c1613 4 0
c1613 4 1
c1613 4 2
c1613 4 3
c1613 4 4
c1619 0 0
c1619 2 0
c1619 2 1
c1619 2 2
c1619 2 3
c1619 2 4
c1619 3 0
c1619 3 1
c1619 3 2
c1619 3 3
c1619 3 4
c1619 4 0
c1619 4 1
c1619 4 2
c1619 4 3
c1619 4 4
c1641 0 0
c1641 0 1
c1641 0 2
c1641 1 2
c1641 2 2
c1641 3 2
c1641 4 0
c1641 4 2
c1703 0 2
c1703 0 3
c1703 0 4
c1703 1 2
c1703 2 2
c1703 2 3
c1703 2 4
c1703 3 2
c1703 4 2
c1703 4 4
c1716 0 0
c1716 0 1
c1716 0 2
c1716 0 3
c1716 0 4
c1716 1 0
c1716 1 1
c1716 1 2
c1716 2 3
c1716 2 4
c3388 0 0
c3388 0 1
c3388 0 2
c3388 0 3
c3388 0 4
c3388 1 0
c3388 1 1
c3388 1 2
c3388 1 3
c3388 1 4
c3388 2 0
c3388 2 1
c3388 2 2
c3388 2 3
c3388 2 4
c3431 0 2
c3431 0 4
c3431 1 2
c3431 2 2
c3431 2 4
c3431 3 2
c3431 4 2
c3431 4 4
c3432 0 3
c3432 0 4
c3432 1 3
c3432 1 4
c3432 3 3
c3432 3 4
c3432 4 3
c3432 4 4
c3444 3 0
c3444 3 1
c3444 3 2
c3444 3 3
c3444 3 4
c3444 4 0
c3444 4 1
c3444 4 2
c3444 4 3
c3444 4 4
c3449 0 0
c3449 0 1
c3449 0 2
c3449 2 3
c3449 2 4
c3449 4 2
c3449 4 3
c3449 4 4
c3450 2 3
c3450 2 4
c3451 0 0
c3451 0 1
c3451 0 2
c3451 0 3
c3451 0 4
c3451 1 0
c3451 1 1
c3451 1 2
c3451 1 3
c3451 1 4
c3451 2 3
c3451 2 4
c3451 4 0
c3451 4 1
c3451 4 2
c3451 4 3
c3451 4 4
c3455 2 3
c3455 2 4
c3466 0 0
c3466 0 1
c3466 0 2
c3466 0 3
c3466 0 4
c3466 4 0
c3466 4 1
c3466 4 2
c3466 4 3
c3466 4 4
c3502 0 0
c3502 1 0
c3502 2 0
c3502 4 0
c3502 4 1
c3502 4 2
c3502 4 3
c3502 4 4
c3527 0 2
c3527 0 4
c3527 1 2
c3527 2 2
c3527 2 4
c3527 3 2
c3527 4 2
c3527 4 4
c3591 2 3
c3591 2 4
c3613 2 3
c3613 2 4
c3614 0 0
c3614 0 1
c3614 0 2
c3614 0 3
c3614 0 4
c3614 2 3
c3614 2 4
c3614 4 0
c3614 4 1
c3614 4 2
c3614 4 3
c3614 4 4
c3615 2 3
c3615 2 4
c3626 0 0
c3626 0 1
c3626 0 2
c3626 0 3
c3626 0 4
c3626 1 0
c3626 1 1
c3626 2 0
c3634 0 3
c3634 0 4
c3634 2 3
c3634 3 0
c3634 3 1
c3634 3 2
c3634 3 3
c3634 3 4
c3636 0 0
c3636 0 1
c3636 0 2
c3636 0 3
c3636 0 4
c3636 4 2
c3636 4 3
c3636 4 4
c3638 0 0
c3638 0 1
c3638 0 2
c3638 0 3
c3638 0 4
c3638 1 0
c3638 2 4
c3638 3 0
c3638 3 1
c3638 3 2
c3638 3 3
c3638 3 4
c3638 4 0
c3638 4 1
c3638 4 2
c3638 4 3
c3638 4 4
c3639 0 0
c3639 0 1
c3639 0 2
c3639 0 3
c3639 0 4
c3639 1 2
c3639 1 3
c3639 1 4
c3639 2 0
c3639 2 1
c3639 2 2
c3639 2 3
c3639 2 4
c3639 3 2
c3639 3 3
c3639 3 4
c3639 4 2
c3639 4 3
c3639 4 4
c3646 0 0
c3646 0 1
c3646 0 2
c3646 0 3
c3646 0 4
c3646 1 0
c3646 2 4
c3646 3 0
c3646 3 1
c3646 3 2
c3646 3 3
c3646 3 4
c3646 4 0
c3646 4 1
c3646 4 2
c3646 4 3
c3646 4 4
c3651 0 0
c3651 0 1
c3651 0 2
c3651 0 3
c3651 0 4
c3651 1 0
c3651 2 0
c3651 4 0
c3668 0 0
c3668 0 1
c3668 0 2
c3668 0 3
c3668 0 4
c3668 1 0
c3668 2 0
c3668 4 0
c3673 0 0
c3673 0 2
c3673 1 2
c3673 2 0
c3673 2 2
c3673 3 2
c3673 4 2
c3681 0 0
c3681 0 1
c3681 1 0
c3681 1 1
c3681 2 3
c3681 2 4
c3681 3 0
c3681 3 1
c3681 4 0
c3681 4 1
c3690 0 2
c3690 0 3
c3690 0 4
c3690 1 2
c3690 2 2
c3690 3 2
c3690 4 2
c3690 4 4
c3692 0 0
c3692 0 1
c3692 0 2
c3692 0 3
c3692 1 0
c3692 1 1
c3692 1 2
c3692 1 3
c3692 2 0
c3692 2 1
c3692 2 2
c3692 2 3
c3692 3 0
c3692 3 1
c3692 3 2
c3692 3 3
c3692 4 0
c3692 4 1
c3692 4 2
c3692 4 3
c3693 0 0
c3693 0 1
c3693 0 2
c3693 0 3
c3693 0 4
c3693 1 0
c3693 2 0
c3693 3 0
c3694 0 3
c3694 1 3
c3694 2 3
c3694 3 3
c3694 3 4
c3694 4 2
c3694 4 3
c3694 4 4
c3700 0 0
c3700 0 1
c3700 4 2
c3700 4 3
c3700 4 4
c3706 1 4
c3706 2 4
c3706 3 4
c3706 4 0
c3706 4 1
c3706 4 2
c3706 4 3
c3706 4 4
c3709 0 0
c3709 0 1
c3709 0 2
c3709 0 3
c3709 0 4
c3709 1 0
c3709 1 1
c3709 1 2
c3709 1 3
c3709 1 4
c3709 4 0
c3709 4 1
c3709 4 2
c3709 4 3
c3709 4 4
c3719 0 0
c3719 0 2
c3719 1 2
c3719 2 0
c3719 2 2
c3719 3 2
c3719 4 0
c3719 4 2
c3722 0 0
c3722 1 0
c3722 2 0
c3722 2 4
c3722 3 0
c3722 3 4
c3722 4 0
c3722 4 4
c3723 0 0
c3723 0 1
c3723 4 2
c3723 4 3
c3723 4 4
c3728 0 0
c3728 1 0
c3728 1 1
c3728 1 2
c3728 1 3
c3728 1 4
c3728 4 3
c3728 4 4
c3731 0 0
c3731 0 1
c3731 1 0
c3731 1 1
c3731 3 0
c3731 3 1
c3731 4 0
c3731 4 1
c3743 0 0
c3743 0 4
c3743 1 0
c3743 1 4
c3743 2 4
c3743 3 4
c3743 4 0
c3743 4 4
c3746 0 0
c3746 0 1
c3746 0 2
c3746 4 0
c3746 4 1
c3746 4 2
c3746 4 3
c3746 4 4
c3747 0 2
c3747 0 3
c3747 1 2
c3747 1 3
c3747 2 2
c3747 3 2
c3747 4 2
c3747 4 3
c3750 0 0
c3750 0 4
c3750 1 0
c3750 1 4
c3750 2 0
c3750 2 4
c3750 4 0
c3750 4 4
c3753 0 4
c3753 1 4
c3753 2 2
c3753 2 4
c3753 3 2
c3753 3 4
c3753 4 2
c3753 4 4
c3754 0 0
c3754 0 4
c3754 2 4
c3754 4 4
c3755 0 0
c3755 1 0
c3755 1 2
c3755 2 0
c3755 2 2
c3755 3 0
c3755 3 2
c3755 4 0
c3760 2 0
c3760 2 1
c3760 2 2
c3760 4 0
c3760 4 1
c3760 4 2
c3760 4 3
c3760 4 4
c3762 0 0
c3762 1 0
c3762 2 0
c3762 3 0
c3762 4 0
c3768 0 4
c3768 1 4
c3768 2 4
c3768 3 0
c3768 3 1
c3768 3 2
c3768 3 3
c3768 3 4
c3768 4 4
c3769 0 0
c3769 2 0
c3769 3 4
c3769 4 0
c3769 4 1
c3769 4 2
c3769 4 3
c3769 4 4
c3772 0 0
c3772 0 1
c3772 0 2
c3772 0 3
c3772 0 4
c3772 4 2
c3772 4 3
c3772 4 4
c3773 0 0
c3773 0 1
c3773 0 2
c3773 0 3
c3773 0 4
c3773 4 2
c3773 4 3
c3773 4 4
c3775 0 0
c3775 0 1
c3775 0 2
c3775 4 0
c3775 4 1
c3775 4 2
c3775 4 3
c3775 4 4
c3776 0 0
c3776 0 1
c3776 0 2
c3776 0 3
c3776 0 4
c3776 4 2
c3776 4 3
c3776 4 4
c3779 0 0
c3779 0 1
c3779 0 2
c3779 0 3
c3779 0 4
c3779 4 2
c3779 4 3
c3779 4 4
c3780 1 2
c3780 1 3
c3780 1 4
c3780 3 2
c3780 3 3
c3780 3 4
c3780 4 3
c3780 4 4
c3783 0 0
c3783 1 0
c3783 1 2
c3783 2 0
c3783 2 2
c3783 3 0
c3783 3 2
c3783 4 0
c3786 0 0
c3786 1 0
c3786 2 0
c3786 4 0
c3786 4 1
c3786 4 2
c3786 4 3
c3786 4 4
c3802 0 4
c3802 1 0
c3802 1 1
c3802 1 2
c3802 1 3
c3802 1 4
c3802 2 3
c3802 2 4
c3802 3 0
c3802 3 1
c3802 3 2
c3802 3 3
c3802 3 4
c3802 4 2
c3802 4 3
c3802 4 4
c3806 0 0
c3806 0 1
c3806 0 2
c3806 0 3
c3806 0 4
c3806 1 0
c3806 1 3
c3806 1 4
c3806 2 0
c3806 2 1
c3806 2 2
c3806 2 3
c3806 2 4
c3806 3 0
c3806 3 1
c3806 3 3
c3806 3 4
c3806 4 0
c3806 4 1
c3806 4 2
c3806 4 3
c3806 4 4
c3812 0 0
c3812 1 0
c3812 2 0
c3812 4 0
c3812 4 1
c3812 4 2
c3812 4 3
c3812 4 4
c3815 0 4
c3815 1 4
c3815 2 4
c3815 3 0
c3815 3 1
c3815 3 2
c3815 3 3
c3815 3 4
c3816 0 0
c3816 0 4
c3816 1 0
c3816 1 3
c3816 2 0
c3816 3 0
c3816 4 0
c3816 4 4
c3820 0 4
c3820 1 4
c3820 2 4
c3820 3 4
c3820 4 4
c3821 0 0
c3821 0 4
c3821 2 4
c3821 4 4
c3822 0 0
c3822 0 1
c3822 0 2
c3822 1 0
c3822 2 0
c3822 3 0
c3822 4 3
c3822 4 4
c3828 0 0
c3828 0 2
c3828 1 0
c3828 1 2
c3828 2 0
c3828 3 0
c3828 4 0
c3828 4 2
c3830 0 0
c3830 0 1
c3830 0 2
c3830 0 3
c3830 0 4
c3830 1 1
c3830 3 0
c3830 3 1
c3830 3 2
c3830 3 3
c3830 3 4
c3830 4 0
c3830 4 1
c3830 4 2
c3830 4 3
c3830 4 4
c3832 0 0
c3832 1 0
c3832 2 0
c3832 2 4
c3832 3 0
c3832 3 4
c3832 4 0
c3832 4 4
c3833 0 1
c3833 1 1
c3833 2 0
c3833 2 1
c3833 3 0
c3833 3 1
c3833 4 0
c3833 4 1
c3834 0 0
c3834 0 1
c3834 1 0
c3834 2 0
c3834 2 3
c3834 2 4
c3834 3 0
c3834 4 0
c3835 1 3
c3835 1 4
c3835 2 1
c3835 2 2
c3835 2 3
c3835 3 0
c3835 3 1
c3835 3 2
c3842 0 0
c3842 1 0
c3842 2 0
c3842 3 0
c3842 4 0
c3844 0 4
c3844 1 4
c3844 2 4
c3844 3 4
c3844 4 4
c3848 0 3
c3848 0 4
c3848 1 3
c3848 1 4
c3848 2 3
c3848 2 4
c3848 3 3
c3848 3 4
c3848 4 3
c3848 4 4
c3851 0 0
c3851 2 0
c3851 3 4
c3851 4 0
c3851 4 1
c3851 4 2
c3851 4 3
c3851 4 4
c3852 0 0
c3852 0 1
c3852 0 2
c3852 0 3
c3852 0 4
c3852 1 0
c3852 2 0
c3852 3 0
c3855 3 0
c3855 3 1
c3855 3 2
c3855 3 3
c3855 3 4
c3855 4 0
c3855 4 1
c3855 4 2
c3855 4 3
c3855 4 4
c3859 3 2
c3859 3 3
c3859 3 4
c3859 4 0
c3859 4 1
c3859 4 2
c3859 4 3
c3859 4 4
c3861 3 2
c3861 3 3
c3861 3 4
c3861 4 0
c3861 4 1
c3861 4 2
c3861 4 3
c3861 4 4
c3862 0 0
c3862 0 1
c3862 0 2
c3862 0 3
c3862 0 4
c3862 4 2
c3862 4 3
c3862 4 4
c3864 0 4
c3864 1 0
c3864 1 1
c3864 1 2
c3864 1 3
c3864 1 4
c3864 3 3
c3864 3 4
c3869 0 2
c3869 1 2
c3869 2 2
c3869 3 2
c3869 4 2
c3870 0 4
c3870 1 4
c3870 2 4
c3870 3 4
c3870 4 4
c3871 0 0
c3871 0 1
c3871 1 0
c3871 1 1
c3871 2 0
c3871 2 1
c3871 3 0
c3871 4 0
c3874 0 2
c3874 1 2
c3874 2 2
c3874 3 2
c3874 4 2
c3875 4 0
c3875 4 1
c3875 4 2
c3875 4 3
c3875 4 4
c3876 0 0
c3876 1 0
c3876 2 0
c3876 3 0
c3876 4 0
c3892 0 0
c3892 0 1
c3892 0 2
c3892 0 3
c3892 0 4
c3892 4 2
c3892 4 3
c3892 4 4
c3898 0 2
c3898 1 2
c3898 2 2
c3898 3 2
c3898 4 0
c3898 4 2
c3898 4 3
c3898 4 4
c3928 0 0
c3928 0 1
c3928 0 2
c3928 0 3
c3928 0 4
c3928 4 0
c3928 4 1
c3928 4 2
c3931 1 1
c3931 1 2
c3931 1 3
c3931 2 1
c3931 2 2
c3931 2 3
c3931 3 1
c3931 3 2
c3933 0 0
c3933 0 1
c3933 0 2
c3933 0 3
c3933 0 4
c3933 1 0
c3933 1 1
c3933 1 2
c3933 2 0
c3933 2 1
c3933 2 2
c3933 3 0
c3933 3 1
c3933 3 2
c3933 3 3
c3933 3 4
c3933 4 0
c3933 4 1
c3933 4 2
c3946 0 0
c3946 0 1
c3946 0 2
c3946 1 0
c3946 2 0
c3946 3 0
c3946 4 3
c3946 4 4
c3947 0 0
c3947 0 1
c3947 0 2
c3947 0 3
c3947 0 4
c3947 2 0
c3947 3 0
c3947 4 0
c3948 0 4
c3948 4 0
c3948 4 1
c3948 4 2
c3948 4 3
c3948 4 4
c3949 0 0
c3949 0 2
c3949 1 2
c3949 2 2
c3949 3 2
c3949 4 2
c3949 4 3
c3949 4 4
c3950 0 0
c3950 0 1
c3950 0 2
c3950 0 3
c3950 4 1
c3950 4 2
c3950 4 3
c3950 4 4
c3951 4 0
c3951 4 1
c3951 4 2
c3951 4 3
c3951 4 4
c3674 0 0
c3674 1 0
c3674 1 2
c3674 2 0
c3674 2 2
c3674 3 0
c3674 3 2
c3674 4 0
c3809 4 0
c3809 4 1
c3809 4 2
c3809 4 3
c3809 4 4
c3932 0 0
c3932 1 0
c3932 2 0
c3932 3 0
c3932 4 0
c3932 4 1
c3932 4 2
c3932 4 3
c3932 4 4

ROOM_CONSTRAINTS:
c1606b DS1
c1606 DS1
c1613 DS1
c1619 DS1
c1641 DS1
c1703 DS1
c1716 DS1
c3388 DS1
c3431 DS1
c3432 DS1
c3444 DS1
c3449 DS1
c3450 DS1
c3451 DS1
c3455 DS1
c3466 DS1
c3502 DS1
c3527 DS1
c3591 DS1
c3603 DS1
c3613 DS1
c3614 DS1
c3615 DS1
c3624 DS1
c3626 DS1
c3634 DS1
c3636 DS1
c3638 DS1
c3639 DS1
c3646 DS1
c3651 DS1
c3668 DS1
c3673 DS1
c3681 DS1
c3689 DS1
c3690 DS1
c3690a DS1
c3690b DS1
c3692 DS1
c3693 DS1
c3694 DS1
c3700 DS1
c3705 DS1
c3706 DS1
c3709 DS1
c3712 DS1
c3719 DS1
c3722 DS1
c3723 DS1
c3724 DS1
c3726 DS1
c3728 DS1
c3731 DS1
c3736 DS1
c3743 DS1
c3744 DS1
c3746 DS1
c3747 DS1
c3750 DS1
c3753 DS1
c3754 DS1
c3755 DS1
c3760 DS1
c3762 DS1
c3767 DS1
c3768 DS1
c3769 DS1
c3771 DS1
c3772 DS1
c3773 DS1
c3775 DS1
c3776 DS1
c3779 DS1
c3780 DS1
c3782 DS1
c3783 DS1
c3786 DS1
c3791 DS1
c3802 DS1
c3806 DS1
c3807 DS1
c3812 DS1
c3815 DS1
c3816 DS1
c3820 DS1
c3821 DS1
c3822 DS1
c3828 DS1
c3830 DS1
c3832 DS1
c3833 DS1
c3834 DS1
c3835 DS1
c3839 DS1
c3842 DS1
c3844 DS1
c3848 DS1
c3851 DS1
c3852 DS1
c3855 DS1
c3859 DS1
c3861 DS1
c3862 DS1
c3864 DS1
c3869 DS1
c3870 DS1
c3871 DS1
c3874 DS1
c3875 DS1
c3876 DS1
c3877 DS1
c3892 DS1
c3898 DS1
c3928 DS1
c3931 DS1
c3933 DS1
c3944 DS1
c3945 DS1
c3946 DS1
c3947 DS1
c3948 DS1
c3949 DS1
c3950 DS1
c3951 DS1
c3674 DS1
c3809 DS1
c3932 DS1

END.
